nTasks=4;
nThreads=8;
nCPUs=3;
nCores=3;
rh=[225.95093051 759.761106874 414.067786222 102.358022114 730.728749767 696.776954773 109.840270005 290.087349842];
rc=[455.73921166 520.662263323 627.766049683];
CK=[
	[1 0 0]
	[0 1 0]
	[0 0 1]
];
TH=[
	[1 1 1 0 0 0 0 0]
	[0 0 0 1 1 0 0 0]
	[0 0 0 0 0 1 1 0]
	[0 0 0 0 0 0 0 1]
];
